
(set-logic HORN)
(declare-rel assign_27_11_286_abs (Int Int Int Int Int Int Int Int Int Int Int))
(declare-rel assert_26_11_277_abs (Int Int Int Int Int Int Int Int Int Int Int))
(declare-rel while_24_1_289_abs (Int Int Int Int Int Int Int Int Int Int Int))
(declare-rel assign_23_8_206_abs (Int Int Int Int Int Int Int Int Int Int Int))
(declare-rel assign_19_5_158_abs (Int Int Int Int Int Int Int Int Int Int Int))
(declare-rel arrayassign_18_5_149_abs (Int Int Int Int Int Int Int Int Int Int Int))
(declare-rel while_16_1_161_abs (Int Int Int Int Int Int Int Int Int Int Int))
(declare-rel assign_15_1_85_abs (Int Int Int Int Int Int Int Int Int Int Int))
(declare-rel assign_12_8_79_abs (Int Int Int Int Int Int Int Int Int Int Int))
(declare-rel assign_11_1_67_abs (Int Int Int Int Int Int Int Int Int Int Int))
(declare-rel end_abs (Int Int Int Int Int Int Int Int Int Int Int))
(declare-rel start_abs (Int Int Int Int Int Int Int Int Int Int Int));Number of predicates (nodes) = 12
;Number of variables = 5
;Number of clauses = 15
;
(assert (forall ( (b (Array Int Int)) (a (Array Int Int)) (Nb Int) (Na Int) (i Int) (i1 Int) (i2 Int) (i3 Int) (i4 Int)) (start_abs i4 (select b i4) i3 (select b i3) i2 (select a i2) i1 (select a i1) Nb Na i)))
(assert (forall ( (i Int) (Na Int) (Nb Int) (a (Array Int Int)) (b (Array Int Int)) (i1 Int) (i2 Int) (i3 Int) (i4 Int)) (=> (and (start_abs i3 (select b i3) i3 (select b i3) i1 (select a i1) i1 (select a i1) Nb Na i) (start_abs i3 (select b i3) i3 (select b i3) i1 (select a i1) i2 (select a i2) Nb Na i) (start_abs i3 (select b i3) i3 (select b i3) i2 (select a i2) i1 (select a i1) Nb Na i) (start_abs i3 (select b i3) i3 (select b i3) i2 (select a i2) i2 (select a i2) Nb Na i) (start_abs i3 (select b i3) i4 (select b i4) i1 (select a i1) i1 (select a i1) Nb Na i) (start_abs i3 (select b i3) i4 (select b i4) i1 (select a i1) i2 (select a i2) Nb Na i) (start_abs i3 (select b i3) i4 (select b i4) i2 (select a i2) i1 (select a i1) Nb Na i) (start_abs i3 (select b i3) i4 (select b i4) i2 (select a i2) i2 (select a i2) Nb Na i) (start_abs i4 (select b i4) i3 (select b i3) i1 (select a i1) i1 (select a i1) Nb Na i) (start_abs i4 (select b i4) i3 (select b i3) i1 (select a i1) i2 (select a i2) Nb Na i) (start_abs i4 (select b i4) i3 (select b i3) i2 (select a i2) i1 (select a i1) Nb Na i) (start_abs i4 (select b i4) i3 (select b i3) i2 (select a i2) i2 (select a i2) Nb Na i) (start_abs i4 (select b i4) i4 (select b i4) i1 (select a i1) i1 (select a i1) Nb Na i) (start_abs i4 (select b i4) i4 (select b i4) i1 (select a i1) i2 (select a i2) Nb Na i) (start_abs i4 (select b i4) i4 (select b i4) i2 (select a i2) i1 (select a i1) Nb Na i) (start_abs i4 (select b i4) i4 (select b i4) i2 (select a i2) i2 (select a i2) Nb Na i)) (assign_11_1_67_abs i4 (select b i4) i3 (select b i3) i2 (select a i2) i1 (select a i1) Nb Na i))))
;
;(assign)  Na := Support.random()
(assert (forall ( (rnd Int) (i Int) (Na Int) (Nb Int) (a (Array Int Int)) (b (Array Int Int)) (i1 Int) (i2 Int) (i3 Int) (i4 Int)) (=> (and (assign_11_1_67_abs i3 (select b i3) i3 (select b i3) i1 (select a i1) i1 (select a i1) Nb Na i) (assign_11_1_67_abs i3 (select b i3) i3 (select b i3) i1 (select a i1) i2 (select a i2) Nb Na i) (assign_11_1_67_abs i3 (select b i3) i3 (select b i3) i2 (select a i2) i1 (select a i1) Nb Na i) (assign_11_1_67_abs i3 (select b i3) i3 (select b i3) i2 (select a i2) i2 (select a i2) Nb Na i) (assign_11_1_67_abs i3 (select b i3) i4 (select b i4) i1 (select a i1) i1 (select a i1) Nb Na i) (assign_11_1_67_abs i3 (select b i3) i4 (select b i4) i1 (select a i1) i2 (select a i2) Nb Na i) (assign_11_1_67_abs i3 (select b i3) i4 (select b i4) i2 (select a i2) i1 (select a i1) Nb Na i) (assign_11_1_67_abs i3 (select b i3) i4 (select b i4) i2 (select a i2) i2 (select a i2) Nb Na i) (assign_11_1_67_abs i4 (select b i4) i3 (select b i3) i1 (select a i1) i1 (select a i1) Nb Na i) (assign_11_1_67_abs i4 (select b i4) i3 (select b i3) i1 (select a i1) i2 (select a i2) Nb Na i) (assign_11_1_67_abs i4 (select b i4) i3 (select b i3) i2 (select a i2) i1 (select a i1) Nb Na i) (assign_11_1_67_abs i4 (select b i4) i3 (select b i3) i2 (select a i2) i2 (select a i2) Nb Na i) (assign_11_1_67_abs i4 (select b i4) i4 (select b i4) i1 (select a i1) i1 (select a i1) Nb Na i) (assign_11_1_67_abs i4 (select b i4) i4 (select b i4) i1 (select a i1) i2 (select a i2) Nb Na i) (assign_11_1_67_abs i4 (select b i4) i4 (select b i4) i2 (select a i2) i1 (select a i1) Nb Na i) (assign_11_1_67_abs i4 (select b i4) i4 (select b i4) i2 (select a i2) i2 (select a i2) Nb Na i)) (assign_12_8_79_abs i4 (select b i4) i3 (select b i3) i2 (select a i2) i1 (select a i1) Nb rnd i))))
;
;(assign)  Nb := Support.random()
(assert (forall ( (rnd Int) (i Int) (Na Int) (Nb Int) (a (Array Int Int)) (b (Array Int Int)) (i1 Int) (i2 Int) (i3 Int) (i4 Int)) (=> (and (assign_12_8_79_abs i3 (select b i3) i3 (select b i3) i1 (select a i1) i1 (select a i1) Nb Na i) (assign_12_8_79_abs i3 (select b i3) i3 (select b i3) i1 (select a i1) i2 (select a i2) Nb Na i) (assign_12_8_79_abs i3 (select b i3) i3 (select b i3) i2 (select a i2) i1 (select a i1) Nb Na i) (assign_12_8_79_abs i3 (select b i3) i3 (select b i3) i2 (select a i2) i2 (select a i2) Nb Na i) (assign_12_8_79_abs i3 (select b i3) i4 (select b i4) i1 (select a i1) i1 (select a i1) Nb Na i) (assign_12_8_79_abs i3 (select b i3) i4 (select b i4) i1 (select a i1) i2 (select a i2) Nb Na i) (assign_12_8_79_abs i3 (select b i3) i4 (select b i4) i2 (select a i2) i1 (select a i1) Nb Na i) (assign_12_8_79_abs i3 (select b i3) i4 (select b i4) i2 (select a i2) i2 (select a i2) Nb Na i) (assign_12_8_79_abs i4 (select b i4) i3 (select b i3) i1 (select a i1) i1 (select a i1) Nb Na i) (assign_12_8_79_abs i4 (select b i4) i3 (select b i3) i1 (select a i1) i2 (select a i2) Nb Na i) (assign_12_8_79_abs i4 (select b i4) i3 (select b i3) i2 (select a i2) i1 (select a i1) Nb Na i) (assign_12_8_79_abs i4 (select b i4) i3 (select b i3) i2 (select a i2) i2 (select a i2) Nb Na i) (assign_12_8_79_abs i4 (select b i4) i4 (select b i4) i1 (select a i1) i1 (select a i1) Nb Na i) (assign_12_8_79_abs i4 (select b i4) i4 (select b i4) i1 (select a i1) i2 (select a i2) Nb Na i) (assign_12_8_79_abs i4 (select b i4) i4 (select b i4) i2 (select a i2) i1 (select a i1) Nb Na i) (assign_12_8_79_abs i4 (select b i4) i4 (select b i4) i2 (select a i2) i2 (select a i2) Nb Na i)) (assign_15_1_85_abs i4 (select b i4) i3 (select b i3) i2 (select a i2) i1 (select a i1) rnd Na i))))
;
;(assign)  i := Na
(assert (forall ( (i Int) (Na Int) (Nb Int) (a (Array Int Int)) (b (Array Int Int)) (i1 Int) (i2 Int) (i3 Int) (i4 Int)) (=> (and (assign_15_1_85_abs i3 (select b i3) i3 (select b i3) i1 (select a i1) i1 (select a i1) Nb Na i) (assign_15_1_85_abs i3 (select b i3) i3 (select b i3) i1 (select a i1) i2 (select a i2) Nb Na i) (assign_15_1_85_abs i3 (select b i3) i3 (select b i3) i2 (select a i2) i1 (select a i1) Nb Na i) (assign_15_1_85_abs i3 (select b i3) i3 (select b i3) i2 (select a i2) i2 (select a i2) Nb Na i) (assign_15_1_85_abs i3 (select b i3) i4 (select b i4) i1 (select a i1) i1 (select a i1) Nb Na i) (assign_15_1_85_abs i3 (select b i3) i4 (select b i4) i1 (select a i1) i2 (select a i2) Nb Na i) (assign_15_1_85_abs i3 (select b i3) i4 (select b i4) i2 (select a i2) i1 (select a i1) Nb Na i) (assign_15_1_85_abs i3 (select b i3) i4 (select b i4) i2 (select a i2) i2 (select a i2) Nb Na i) (assign_15_1_85_abs i4 (select b i4) i3 (select b i3) i1 (select a i1) i1 (select a i1) Nb Na i) (assign_15_1_85_abs i4 (select b i4) i3 (select b i3) i1 (select a i1) i2 (select a i2) Nb Na i) (assign_15_1_85_abs i4 (select b i4) i3 (select b i3) i2 (select a i2) i1 (select a i1) Nb Na i) (assign_15_1_85_abs i4 (select b i4) i3 (select b i3) i2 (select a i2) i2 (select a i2) Nb Na i) (assign_15_1_85_abs i4 (select b i4) i4 (select b i4) i1 (select a i1) i1 (select a i1) Nb Na i) (assign_15_1_85_abs i4 (select b i4) i4 (select b i4) i1 (select a i1) i2 (select a i2) Nb Na i) (assign_15_1_85_abs i4 (select b i4) i4 (select b i4) i2 (select a i2) i1 (select a i1) Nb Na i) (assign_15_1_85_abs i4 (select b i4) i4 (select b i4) i2 (select a i2) i2 (select a i2) Nb Na i)) (while_16_1_161_abs i4 (select b i4) i3 (select b i3) i2 (select a i2) i1 (select a i1) Nb Na Na))))
;
;(while)   while((i<(Na+Nb)))
(assert (forall ( (b (Array Int Int)) (a (Array Int Int)) (Nb Int) (Na Int) (i Int) (i1 Int) (i2 Int) (i3 Int) (i4 Int)) (=> (and (while_16_1_161_abs i3 (select b i3) i3 (select b i3) i1 (select a i1) i1 (select a i1) Nb Na i) (while_16_1_161_abs i3 (select b i3) i3 (select b i3) i1 (select a i1) i2 (select a i2) Nb Na i) (while_16_1_161_abs i3 (select b i3) i3 (select b i3) i2 (select a i2) i1 (select a i1) Nb Na i) (while_16_1_161_abs i3 (select b i3) i3 (select b i3) i2 (select a i2) i2 (select a i2) Nb Na i) (while_16_1_161_abs i3 (select b i3) i4 (select b i4) i1 (select a i1) i1 (select a i1) Nb Na i) (while_16_1_161_abs i3 (select b i3) i4 (select b i4) i1 (select a i1) i2 (select a i2) Nb Na i) (while_16_1_161_abs i3 (select b i3) i4 (select b i4) i2 (select a i2) i1 (select a i1) Nb Na i) (while_16_1_161_abs i3 (select b i3) i4 (select b i4) i2 (select a i2) i2 (select a i2) Nb Na i) (while_16_1_161_abs i4 (select b i4) i3 (select b i3) i1 (select a i1) i1 (select a i1) Nb Na i) (while_16_1_161_abs i4 (select b i4) i3 (select b i3) i1 (select a i1) i2 (select a i2) Nb Na i) (while_16_1_161_abs i4 (select b i4) i3 (select b i3) i2 (select a i2) i1 (select a i1) Nb Na i) (while_16_1_161_abs i4 (select b i4) i3 (select b i3) i2 (select a i2) i2 (select a i2) Nb Na i) (while_16_1_161_abs i4 (select b i4) i4 (select b i4) i1 (select a i1) i1 (select a i1) Nb Na i) (while_16_1_161_abs i4 (select b i4) i4 (select b i4) i1 (select a i1) i2 (select a i2) Nb Na i) (while_16_1_161_abs i4 (select b i4) i4 (select b i4) i2 (select a i2) i1 (select a i1) Nb Na i) (while_16_1_161_abs i4 (select b i4) i4 (select b i4) i2 (select a i2) i2 (select a i2) Nb Na i) (< i (+ Na Nb))) (arrayassign_18_5_149_abs i4 (select b i4) i3 (select b i3) i2 (select a i2) i1 (select a i1) Nb Na i))))
(assert (forall ( (b (Array Int Int)) (a (Array Int Int)) (Nb Int) (Na Int) (i Int) (i1 Int) (i2 Int) (i3 Int) (i4 Int)) (=> (and (while_16_1_161_abs i3 (select b i3) i3 (select b i3) i1 (select a i1) i1 (select a i1) Nb Na i) (while_16_1_161_abs i3 (select b i3) i3 (select b i3) i1 (select a i1) i2 (select a i2) Nb Na i) (while_16_1_161_abs i3 (select b i3) i3 (select b i3) i2 (select a i2) i1 (select a i1) Nb Na i) (while_16_1_161_abs i3 (select b i3) i3 (select b i3) i2 (select a i2) i2 (select a i2) Nb Na i) (while_16_1_161_abs i3 (select b i3) i4 (select b i4) i1 (select a i1) i1 (select a i1) Nb Na i) (while_16_1_161_abs i3 (select b i3) i4 (select b i4) i1 (select a i1) i2 (select a i2) Nb Na i) (while_16_1_161_abs i3 (select b i3) i4 (select b i4) i2 (select a i2) i1 (select a i1) Nb Na i) (while_16_1_161_abs i3 (select b i3) i4 (select b i4) i2 (select a i2) i2 (select a i2) Nb Na i) (while_16_1_161_abs i4 (select b i4) i3 (select b i3) i1 (select a i1) i1 (select a i1) Nb Na i) (while_16_1_161_abs i4 (select b i4) i3 (select b i3) i1 (select a i1) i2 (select a i2) Nb Na i) (while_16_1_161_abs i4 (select b i4) i3 (select b i3) i2 (select a i2) i1 (select a i1) Nb Na i) (while_16_1_161_abs i4 (select b i4) i3 (select b i3) i2 (select a i2) i2 (select a i2) Nb Na i) (while_16_1_161_abs i4 (select b i4) i4 (select b i4) i1 (select a i1) i1 (select a i1) Nb Na i) (while_16_1_161_abs i4 (select b i4) i4 (select b i4) i1 (select a i1) i2 (select a i2) Nb Na i) (while_16_1_161_abs i4 (select b i4) i4 (select b i4) i2 (select a i2) i1 (select a i1) Nb Na i) (while_16_1_161_abs i4 (select b i4) i4 (select b i4) i2 (select a i2) i2 (select a i2) Nb Na i) (not (< i (+ Na Nb)))) (assign_23_8_206_abs i4 (select b i4) i3 (select b i3) i2 (select a i2) i1 (select a i1) Nb Na i))))
;
;(aassign) a[i] := b[(i-Na)]
(assert (forall ( (i Int) (Na Int) (Nb Int) (a (Array Int Int)) (b (Array Int Int)) (i1 Int) (i2 Int) (i3 Int) (i4 Int)) (=> (and (arrayassign_18_5_149_abs (- i Na) (select b (- i Na)) (- i Na) (select b (- i Na)) i1 (select a i1) i1 (select a i1) Nb Na i) (arrayassign_18_5_149_abs (- i Na) (select b (- i Na)) (- i Na) (select b (- i Na)) i1 (select a i1) i2 (select a i2) Nb Na i) (arrayassign_18_5_149_abs (- i Na) (select b (- i Na)) (- i Na) (select b (- i Na)) i2 (select a i2) i1 (select a i1) Nb Na i) (arrayassign_18_5_149_abs (- i Na) (select b (- i Na)) (- i Na) (select b (- i Na)) i2 (select a i2) i2 (select a i2) Nb Na i) (arrayassign_18_5_149_abs (- i Na) (select b (- i Na)) i3 (select b i3) i1 (select a i1) i1 (select a i1) Nb Na i) (arrayassign_18_5_149_abs (- i Na) (select b (- i Na)) i3 (select b i3) i1 (select a i1) i2 (select a i2) Nb Na i) (arrayassign_18_5_149_abs (- i Na) (select b (- i Na)) i3 (select b i3) i2 (select a i2) i1 (select a i1) Nb Na i) (arrayassign_18_5_149_abs (- i Na) (select b (- i Na)) i3 (select b i3) i2 (select a i2) i2 (select a i2) Nb Na i) (arrayassign_18_5_149_abs (- i Na) (select b (- i Na)) i4 (select b i4) i1 (select a i1) i1 (select a i1) Nb Na i) (arrayassign_18_5_149_abs (- i Na) (select b (- i Na)) i4 (select b i4) i1 (select a i1) i2 (select a i2) Nb Na i) (arrayassign_18_5_149_abs (- i Na) (select b (- i Na)) i4 (select b i4) i2 (select a i2) i1 (select a i1) Nb Na i) (arrayassign_18_5_149_abs (- i Na) (select b (- i Na)) i4 (select b i4) i2 (select a i2) i2 (select a i2) Nb Na i) (arrayassign_18_5_149_abs i3 (select b i3) (- i Na) (select b (- i Na)) i1 (select a i1) i1 (select a i1) Nb Na i) (arrayassign_18_5_149_abs i3 (select b i3) (- i Na) (select b (- i Na)) i1 (select a i1) i2 (select a i2) Nb Na i) (arrayassign_18_5_149_abs i3 (select b i3) (- i Na) (select b (- i Na)) i2 (select a i2) i1 (select a i1) Nb Na i) (arrayassign_18_5_149_abs i3 (select b i3) (- i Na) (select b (- i Na)) i2 (select a i2) i2 (select a i2) Nb Na i) (arrayassign_18_5_149_abs i3 (select b i3) i3 (select b i3) i1 (select a i1) i1 (select a i1) Nb Na i) (arrayassign_18_5_149_abs i3 (select b i3) i3 (select b i3) i1 (select a i1) i2 (select a i2) Nb Na i) (arrayassign_18_5_149_abs i3 (select b i3) i3 (select b i3) i2 (select a i2) i1 (select a i1) Nb Na i) (arrayassign_18_5_149_abs i3 (select b i3) i3 (select b i3) i2 (select a i2) i2 (select a i2) Nb Na i) (arrayassign_18_5_149_abs i3 (select b i3) i4 (select b i4) i1 (select a i1) i1 (select a i1) Nb Na i) (arrayassign_18_5_149_abs i3 (select b i3) i4 (select b i4) i1 (select a i1) i2 (select a i2) Nb Na i) (arrayassign_18_5_149_abs i3 (select b i3) i4 (select b i4) i2 (select a i2) i1 (select a i1) Nb Na i) (arrayassign_18_5_149_abs i3 (select b i3) i4 (select b i4) i2 (select a i2) i2 (select a i2) Nb Na i) (arrayassign_18_5_149_abs i4 (select b i4) (- i Na) (select b (- i Na)) i1 (select a i1) i1 (select a i1) Nb Na i) (arrayassign_18_5_149_abs i4 (select b i4) (- i Na) (select b (- i Na)) i1 (select a i1) i2 (select a i2) Nb Na i) (arrayassign_18_5_149_abs i4 (select b i4) (- i Na) (select b (- i Na)) i2 (select a i2) i1 (select a i1) Nb Na i) (arrayassign_18_5_149_abs i4 (select b i4) (- i Na) (select b (- i Na)) i2 (select a i2) i2 (select a i2) Nb Na i) (arrayassign_18_5_149_abs i4 (select b i4) i3 (select b i3) i1 (select a i1) i1 (select a i1) Nb Na i) (arrayassign_18_5_149_abs i4 (select b i4) i3 (select b i3) i1 (select a i1) i2 (select a i2) Nb Na i) (arrayassign_18_5_149_abs i4 (select b i4) i3 (select b i3) i2 (select a i2) i1 (select a i1) Nb Na i) (arrayassign_18_5_149_abs i4 (select b i4) i3 (select b i3) i2 (select a i2) i2 (select a i2) Nb Na i) (arrayassign_18_5_149_abs i4 (select b i4) i4 (select b i4) i1 (select a i1) i1 (select a i1) Nb Na i) (arrayassign_18_5_149_abs i4 (select b i4) i4 (select b i4) i1 (select a i1) i2 (select a i2) Nb Na i) (arrayassign_18_5_149_abs i4 (select b i4) i4 (select b i4) i2 (select a i2) i1 (select a i1) Nb Na i) (arrayassign_18_5_149_abs i4 (select b i4) i4 (select b i4) i2 (select a i2) i2 (select a i2) Nb Na i)) (assign_19_5_158_abs i4 (select b i4) i3 (select b i3) i2 (ite (= i i2) (select b (- i Na)) (select a i2)) i1 (ite (= i i1) (select b (- i Na)) (select a i1)) Nb Na i))))
;
;(assign)  i := (i+1)
(assert (forall ( (i Int) (Na Int) (Nb Int) (a (Array Int Int)) (b (Array Int Int)) (i1 Int) (i2 Int) (i3 Int) (i4 Int)) (=> (and (assign_19_5_158_abs i3 (select b i3) i3 (select b i3) i1 (select a i1) i1 (select a i1) Nb Na i) (assign_19_5_158_abs i3 (select b i3) i3 (select b i3) i1 (select a i1) i2 (select a i2) Nb Na i) (assign_19_5_158_abs i3 (select b i3) i3 (select b i3) i2 (select a i2) i1 (select a i1) Nb Na i) (assign_19_5_158_abs i3 (select b i3) i3 (select b i3) i2 (select a i2) i2 (select a i2) Nb Na i) (assign_19_5_158_abs i3 (select b i3) i4 (select b i4) i1 (select a i1) i1 (select a i1) Nb Na i) (assign_19_5_158_abs i3 (select b i3) i4 (select b i4) i1 (select a i1) i2 (select a i2) Nb Na i) (assign_19_5_158_abs i3 (select b i3) i4 (select b i4) i2 (select a i2) i1 (select a i1) Nb Na i) (assign_19_5_158_abs i3 (select b i3) i4 (select b i4) i2 (select a i2) i2 (select a i2) Nb Na i) (assign_19_5_158_abs i4 (select b i4) i3 (select b i3) i1 (select a i1) i1 (select a i1) Nb Na i) (assign_19_5_158_abs i4 (select b i4) i3 (select b i3) i1 (select a i1) i2 (select a i2) Nb Na i) (assign_19_5_158_abs i4 (select b i4) i3 (select b i3) i2 (select a i2) i1 (select a i1) Nb Na i) (assign_19_5_158_abs i4 (select b i4) i3 (select b i3) i2 (select a i2) i2 (select a i2) Nb Na i) (assign_19_5_158_abs i4 (select b i4) i4 (select b i4) i1 (select a i1) i1 (select a i1) Nb Na i) (assign_19_5_158_abs i4 (select b i4) i4 (select b i4) i1 (select a i1) i2 (select a i2) Nb Na i) (assign_19_5_158_abs i4 (select b i4) i4 (select b i4) i2 (select a i2) i1 (select a i1) Nb Na i) (assign_19_5_158_abs i4 (select b i4) i4 (select b i4) i2 (select a i2) i2 (select a i2) Nb Na i)) (while_16_1_161_abs i4 (select b i4) i3 (select b i3) i2 (select a i2) i1 (select a i1) Nb Na (+ i 1)))))
;
;(assign)  i := Na
(assert (forall ( (i Int) (Na Int) (Nb Int) (a (Array Int Int)) (b (Array Int Int)) (i1 Int) (i2 Int) (i3 Int) (i4 Int)) (=> (and (assign_23_8_206_abs i3 (select b i3) i3 (select b i3) i1 (select a i1) i1 (select a i1) Nb Na i) (assign_23_8_206_abs i3 (select b i3) i3 (select b i3) i1 (select a i1) i2 (select a i2) Nb Na i) (assign_23_8_206_abs i3 (select b i3) i3 (select b i3) i2 (select a i2) i1 (select a i1) Nb Na i) (assign_23_8_206_abs i3 (select b i3) i3 (select b i3) i2 (select a i2) i2 (select a i2) Nb Na i) (assign_23_8_206_abs i3 (select b i3) i4 (select b i4) i1 (select a i1) i1 (select a i1) Nb Na i) (assign_23_8_206_abs i3 (select b i3) i4 (select b i4) i1 (select a i1) i2 (select a i2) Nb Na i) (assign_23_8_206_abs i3 (select b i3) i4 (select b i4) i2 (select a i2) i1 (select a i1) Nb Na i) (assign_23_8_206_abs i3 (select b i3) i4 (select b i4) i2 (select a i2) i2 (select a i2) Nb Na i) (assign_23_8_206_abs i4 (select b i4) i3 (select b i3) i1 (select a i1) i1 (select a i1) Nb Na i) (assign_23_8_206_abs i4 (select b i4) i3 (select b i3) i1 (select a i1) i2 (select a i2) Nb Na i) (assign_23_8_206_abs i4 (select b i4) i3 (select b i3) i2 (select a i2) i1 (select a i1) Nb Na i) (assign_23_8_206_abs i4 (select b i4) i3 (select b i3) i2 (select a i2) i2 (select a i2) Nb Na i) (assign_23_8_206_abs i4 (select b i4) i4 (select b i4) i1 (select a i1) i1 (select a i1) Nb Na i) (assign_23_8_206_abs i4 (select b i4) i4 (select b i4) i1 (select a i1) i2 (select a i2) Nb Na i) (assign_23_8_206_abs i4 (select b i4) i4 (select b i4) i2 (select a i2) i1 (select a i1) Nb Na i) (assign_23_8_206_abs i4 (select b i4) i4 (select b i4) i2 (select a i2) i2 (select a i2) Nb Na i)) (while_24_1_289_abs i4 (select b i4) i3 (select b i3) i2 (select a i2) i1 (select a i1) Nb Na Na))))
;
;(while)   while((i<(Na+Nb)))
(assert (forall ( (b (Array Int Int)) (a (Array Int Int)) (Nb Int) (Na Int) (i Int) (i1 Int) (i2 Int) (i3 Int) (i4 Int)) (=> (and (while_24_1_289_abs i3 (select b i3) i3 (select b i3) i1 (select a i1) i1 (select a i1) Nb Na i) (while_24_1_289_abs i3 (select b i3) i3 (select b i3) i1 (select a i1) i2 (select a i2) Nb Na i) (while_24_1_289_abs i3 (select b i3) i3 (select b i3) i2 (select a i2) i1 (select a i1) Nb Na i) (while_24_1_289_abs i3 (select b i3) i3 (select b i3) i2 (select a i2) i2 (select a i2) Nb Na i) (while_24_1_289_abs i3 (select b i3) i4 (select b i4) i1 (select a i1) i1 (select a i1) Nb Na i) (while_24_1_289_abs i3 (select b i3) i4 (select b i4) i1 (select a i1) i2 (select a i2) Nb Na i) (while_24_1_289_abs i3 (select b i3) i4 (select b i4) i2 (select a i2) i1 (select a i1) Nb Na i) (while_24_1_289_abs i3 (select b i3) i4 (select b i4) i2 (select a i2) i2 (select a i2) Nb Na i) (while_24_1_289_abs i4 (select b i4) i3 (select b i3) i1 (select a i1) i1 (select a i1) Nb Na i) (while_24_1_289_abs i4 (select b i4) i3 (select b i3) i1 (select a i1) i2 (select a i2) Nb Na i) (while_24_1_289_abs i4 (select b i4) i3 (select b i3) i2 (select a i2) i1 (select a i1) Nb Na i) (while_24_1_289_abs i4 (select b i4) i3 (select b i3) i2 (select a i2) i2 (select a i2) Nb Na i) (while_24_1_289_abs i4 (select b i4) i4 (select b i4) i1 (select a i1) i1 (select a i1) Nb Na i) (while_24_1_289_abs i4 (select b i4) i4 (select b i4) i1 (select a i1) i2 (select a i2) Nb Na i) (while_24_1_289_abs i4 (select b i4) i4 (select b i4) i2 (select a i2) i1 (select a i1) Nb Na i) (while_24_1_289_abs i4 (select b i4) i4 (select b i4) i2 (select a i2) i2 (select a i2) Nb Na i) (< i (+ Na Nb))) (assert_26_11_277_abs i4 (select b i4) i3 (select b i3) i2 (select a i2) i1 (select a i1) Nb Na i))))
(assert (forall ( (b (Array Int Int)) (a (Array Int Int)) (Nb Int) (Na Int) (i Int) (i1 Int) (i2 Int) (i3 Int) (i4 Int)) (=> (and (while_24_1_289_abs i3 (select b i3) i3 (select b i3) i1 (select a i1) i1 (select a i1) Nb Na i) (while_24_1_289_abs i3 (select b i3) i3 (select b i3) i1 (select a i1) i2 (select a i2) Nb Na i) (while_24_1_289_abs i3 (select b i3) i3 (select b i3) i2 (select a i2) i1 (select a i1) Nb Na i) (while_24_1_289_abs i3 (select b i3) i3 (select b i3) i2 (select a i2) i2 (select a i2) Nb Na i) (while_24_1_289_abs i3 (select b i3) i4 (select b i4) i1 (select a i1) i1 (select a i1) Nb Na i) (while_24_1_289_abs i3 (select b i3) i4 (select b i4) i1 (select a i1) i2 (select a i2) Nb Na i) (while_24_1_289_abs i3 (select b i3) i4 (select b i4) i2 (select a i2) i1 (select a i1) Nb Na i) (while_24_1_289_abs i3 (select b i3) i4 (select b i4) i2 (select a i2) i2 (select a i2) Nb Na i) (while_24_1_289_abs i4 (select b i4) i3 (select b i3) i1 (select a i1) i1 (select a i1) Nb Na i) (while_24_1_289_abs i4 (select b i4) i3 (select b i3) i1 (select a i1) i2 (select a i2) Nb Na i) (while_24_1_289_abs i4 (select b i4) i3 (select b i3) i2 (select a i2) i1 (select a i1) Nb Na i) (while_24_1_289_abs i4 (select b i4) i3 (select b i3) i2 (select a i2) i2 (select a i2) Nb Na i) (while_24_1_289_abs i4 (select b i4) i4 (select b i4) i1 (select a i1) i1 (select a i1) Nb Na i) (while_24_1_289_abs i4 (select b i4) i4 (select b i4) i1 (select a i1) i2 (select a i2) Nb Na i) (while_24_1_289_abs i4 (select b i4) i4 (select b i4) i2 (select a i2) i1 (select a i1) Nb Na i) (while_24_1_289_abs i4 (select b i4) i4 (select b i4) i2 (select a i2) i2 (select a i2) Nb Na i) (not (< i (+ Na Nb)))) (end_abs i4 (select b i4) i3 (select b i3) i2 (select a i2) i1 (select a i1) Nb Na i))))
;
;(assert)  (a[i]==b[(i-Na)])
(assert (forall ( (i Int) (Na Int) (Nb Int) (a (Array Int Int)) (b (Array Int Int))) (=> (assert_26_11_277_abs (- i Na) (select b (- i Na)) (- i Na) (select b (- i Na)) i (select a i) i (select a i) Nb Na i) (= (select a i) (select b (- i Na))))))
(assert (forall ( (i Int) (Na Int) (Nb Int) (a (Array Int Int)) (b (Array Int Int)) (i1 Int) (i2 Int) (i3 Int) (i4 Int)) (=> (and (assert_26_11_277_abs i3 (select b i3) i3 (select b i3) i1 (select a i1) i1 (select a i1) Nb Na i) (assert_26_11_277_abs i3 (select b i3) i3 (select b i3) i1 (select a i1) i2 (select a i2) Nb Na i) (assert_26_11_277_abs i3 (select b i3) i3 (select b i3) i2 (select a i2) i1 (select a i1) Nb Na i) (assert_26_11_277_abs i3 (select b i3) i3 (select b i3) i2 (select a i2) i2 (select a i2) Nb Na i) (assert_26_11_277_abs i3 (select b i3) i4 (select b i4) i1 (select a i1) i1 (select a i1) Nb Na i) (assert_26_11_277_abs i3 (select b i3) i4 (select b i4) i1 (select a i1) i2 (select a i2) Nb Na i) (assert_26_11_277_abs i3 (select b i3) i4 (select b i4) i2 (select a i2) i1 (select a i1) Nb Na i) (assert_26_11_277_abs i3 (select b i3) i4 (select b i4) i2 (select a i2) i2 (select a i2) Nb Na i) (assert_26_11_277_abs i4 (select b i4) i3 (select b i3) i1 (select a i1) i1 (select a i1) Nb Na i) (assert_26_11_277_abs i4 (select b i4) i3 (select b i3) i1 (select a i1) i2 (select a i2) Nb Na i) (assert_26_11_277_abs i4 (select b i4) i3 (select b i3) i2 (select a i2) i1 (select a i1) Nb Na i) (assert_26_11_277_abs i4 (select b i4) i3 (select b i3) i2 (select a i2) i2 (select a i2) Nb Na i) (assert_26_11_277_abs i4 (select b i4) i4 (select b i4) i1 (select a i1) i1 (select a i1) Nb Na i) (assert_26_11_277_abs i4 (select b i4) i4 (select b i4) i1 (select a i1) i2 (select a i2) Nb Na i) (assert_26_11_277_abs i4 (select b i4) i4 (select b i4) i2 (select a i2) i1 (select a i1) Nb Na i) (assert_26_11_277_abs i4 (select b i4) i4 (select b i4) i2 (select a i2) i2 (select a i2) Nb Na i)) (assign_27_11_286_abs i4 (select b i4) i3 (select b i3) i2 (select a i2) i1 (select a i1) Nb Na i))))
;
;(assign)  i := (i+1)
(assert (forall ( (i Int) (Na Int) (Nb Int) (a (Array Int Int)) (b (Array Int Int)) (i1 Int) (i2 Int) (i3 Int) (i4 Int)) (=> (and (assign_27_11_286_abs i3 (select b i3) i3 (select b i3) i1 (select a i1) i1 (select a i1) Nb Na i) (assign_27_11_286_abs i3 (select b i3) i3 (select b i3) i1 (select a i1) i2 (select a i2) Nb Na i) (assign_27_11_286_abs i3 (select b i3) i3 (select b i3) i2 (select a i2) i1 (select a i1) Nb Na i) (assign_27_11_286_abs i3 (select b i3) i3 (select b i3) i2 (select a i2) i2 (select a i2) Nb Na i) (assign_27_11_286_abs i3 (select b i3) i4 (select b i4) i1 (select a i1) i1 (select a i1) Nb Na i) (assign_27_11_286_abs i3 (select b i3) i4 (select b i4) i1 (select a i1) i2 (select a i2) Nb Na i) (assign_27_11_286_abs i3 (select b i3) i4 (select b i4) i2 (select a i2) i1 (select a i1) Nb Na i) (assign_27_11_286_abs i3 (select b i3) i4 (select b i4) i2 (select a i2) i2 (select a i2) Nb Na i) (assign_27_11_286_abs i4 (select b i4) i3 (select b i3) i1 (select a i1) i1 (select a i1) Nb Na i) (assign_27_11_286_abs i4 (select b i4) i3 (select b i3) i1 (select a i1) i2 (select a i2) Nb Na i) (assign_27_11_286_abs i4 (select b i4) i3 (select b i3) i2 (select a i2) i1 (select a i1) Nb Na i) (assign_27_11_286_abs i4 (select b i4) i3 (select b i3) i2 (select a i2) i2 (select a i2) Nb Na i) (assign_27_11_286_abs i4 (select b i4) i4 (select b i4) i1 (select a i1) i1 (select a i1) Nb Na i) (assign_27_11_286_abs i4 (select b i4) i4 (select b i4) i1 (select a i1) i2 (select a i2) Nb Na i) (assign_27_11_286_abs i4 (select b i4) i4 (select b i4) i2 (select a i2) i1 (select a i1) Nb Na i) (assign_27_11_286_abs i4 (select b i4) i4 (select b i4) i2 (select a i2) i2 (select a i2) Nb Na i)) (while_24_1_289_abs i4 (select b i4) i3 (select b i3) i2 (select a i2) i1 (select a i1) Nb Na (+ i 1)))))
(check-sat)
